(set-info :smt-lib-version 2.6)
(set-logic QF_UF)
(set-info :source |
Generated by: Aman Goel (amangoel@umich.edu), Karem A. Sakallah (karem@umich.edu)
Generated on: 2018-04-06

Generated by the tool Averroes 2 (successor of [1]) which implements safety property
verification on hardware systems.

This SMT problem belongs to a set of SMT problems generated by applying Averroes 2
to benchmarks derived from [2-5].

A total of 412 systems (345 from [2], 19 from [3], 26 from [4], 22 from [5]) were
syntactically converted from their original formats (using [6, 7]), and given to 
Averroes 2 to perform property checking with abstraction (wide bit-vectors -> terms, 
wide operators -> UF) using SMT solvers [8, 9].

[1] Lee S., Sakallah K.A. (2014) Unbounded Scalable Verification Based on Approximate
Property-Directed Reachability and Datapath Abstraction. In: Biere A., Bloem R. (eds)
Computer Aided Verification. CAV 2014. Lecture Notes in Computer Science, vol 8559.
Springer, Cham
[2] http://fmv.jku.at/aiger/index.html#beem
[3] http://www.cs.cmu.edu/~modelcheck/vcegar
[4] http://www.cprover.org/hardware/v2c
[5] http://github.com/aman-goel/verilogbench
[6] http://www.clifford.at/yosys
[7] http://github.com/chengyinwu/V3
[8] http://github.com/Z3Prover/z3
[9] http://github.com/SRI-CSL/yices2

id: AR
query-maker: "Yices 2"
query-time: 0.083000 ms
query-class: abstract
query-category: incremental
query-type: fp
status: sat
|)
(set-info :license "https://creativecommons.org/licenses/by/4.0/")
(set-info :category "industrial")

;
(set-info :status sat)
(declare-sort utt$251 0)
(declare-fun Add_251_251_251 (utt$251 utt$251 ) utt$251)
(declare-fun Le_1_251_251 (utt$251 utt$251 ) Bool)
(declare-fun y$105 () Bool)
(declare-fun y$106 () Bool)
(declare-fun y$107 () Bool)
(declare-fun y$108 () Bool)
(declare-fun y$113 () Bool)
(declare-fun y$114 () Bool)
(declare-fun y$115 () Bool)
(declare-fun y$116 () Bool)
(declare-fun y$118 () Bool)
(declare-fun y$119 () Bool)
(declare-fun y$120 () Bool)
(declare-fun y$121 () Bool)
(declare-fun y$123 () Bool)
(declare-fun y$132 () Bool)
(declare-fun y$133 () Bool)
(declare-fun y$134 () Bool)
(declare-fun y$143 () Bool)
(declare-fun y$15 () Bool)
(declare-fun y$17 () Bool)
(declare-fun y$18 () Bool)
(declare-fun y$2 () Bool)
(declare-fun y$23 () Bool)
(declare-fun y$30 () Bool)
(declare-fun y$31 () Bool)
(declare-fun y$34 () Bool)
(declare-fun y$35 () Bool)
(declare-fun y$36 () Bool)
(declare-fun y$40 () Bool)
(declare-fun y$41 () Bool)
(declare-fun y$42 () Bool)
(declare-fun y$43 () Bool)
(declare-fun y$44 () Bool)
(declare-fun y$45 () Bool)
(declare-fun y$5 () Bool)
(declare-fun y$52 () Bool)
(declare-fun y$53 () Bool)
(declare-fun y$55 () Bool)
(declare-fun y$56 () Bool)
(declare-fun y$58 () Bool)
(declare-fun y$59 () Bool)
(declare-fun y$6 () Bool)
(declare-fun y$68 () Bool)
(declare-fun y$71 () Bool)
(declare-fun y$72 () Bool)
(declare-fun y$73 () Bool)
(declare-fun y$74 () Bool)
(declare-fun y$75 () Bool)
(declare-fun y$76 () Bool)
(declare-fun y$84 () Bool)
(declare-fun y$85 () Bool)
(declare-fun y$86 () Bool)
(declare-fun y$87 () Bool)
(declare-fun y$88 () Bool)
(declare-fun y$a () utt$251)
(declare-fun y$a$next () utt$251)
(declare-fun y$a$next_rhs () utt$251)
(declare-fun y$a$next_rhs_op () utt$251)
(declare-fun y$b () utt$251)
(declare-fun y$b$next () utt$251)
(declare-fun y$n0s251 () utt$251)
(declare-fun y$n100s251 () utt$251)
(declare-fun y$n137438953664s251 () utt$251)
(declare-fun y$n1s251 () utt$251)
(declare-fun y$n200s251 () utt$251)
(declare-fun y$prop () Bool)
(declare-fun y$prop$next () Bool)
(declare-fun y$prop0 () Bool)
(declare-fun y$prop0$next () Bool)
(declare-fun y$prop0$next_op () Bool)
(declare-fun y$prop0_op () Bool)
(declare-fun y$s$1 () utt$251)
(declare-fun y$s$1$next () utt$251)
(declare-fun y$s$1$next_op () utt$251)
(declare-fun y$s$1_op () utt$251)
(declare-fun y$s$2 () Bool)
(declare-fun y$s$2$next () Bool)
(declare-fun y$s$2$next_op () Bool)
(declare-fun y$s$2_op () Bool)
(assert (distinct y$n1s251 y$n0s251 y$n100s251 y$n200s251 y$n137438953664s251))
(assert (= y$58 (not (= y$a y$b))))
(assert (= y$2 (= y$n1s251 y$a)))
(assert (= y$5 (= y$n0s251 y$b)))
(assert (= y$6 (and y$2 y$5)))
(assert (= y$6 (not y$114)))
(assert (= y$115 (and y$58 y$114)))
(assert (= y$115 (not y$116)))
(assert (= y$prop0_op (Le_1_251_251 y$a y$n200s251)))
(assert (= y$23 (= y$prop y$prop0_op)))
(assert (= y$prop0$next_op (Le_1_251_251 y$a$next y$n200s251)))
(assert (= y$34 (= y$prop0$next_op y$prop$next)))
(assert (= y$41 (= y$n1s251 y$a$next)))
(assert (= y$prop0$next_op (not y$42)))
(assert (= y$43 (and y$41 y$42)))
(assert (= y$43 (not y$45)))
(assert (= y$prop0_op (not y$36)))
(assert (= y$40 (and y$2 y$36)))
(assert (= y$40 (not y$44)))
(assert (= y$s$1$next_op (Add_251_251_251 y$b$next y$a$next)))
(assert (= y$71 (not (= y$a$next y$s$1$next_op))))
(assert (= y$85 (= y$n0s251 y$b$next)))
(assert (= y$86 (and y$71 y$85)))
(assert (= y$86 (not y$88)))
(assert (= y$s$1_op (Add_251_251_251 y$b y$a)))
(assert (= y$59 (not (= y$a y$s$1_op))))
(assert (= y$84 (and y$5 y$59)))
(assert (= y$84 (not y$87)))
(assert (= y$s$2_op (Le_1_251_251 y$a y$n100s251)))
(assert (= y$a$next_rhs_op (ite y$s$2_op y$s$1_op y$a)))
(assert (= y$15 (= y$a$next y$a$next_rhs_op)))
(assert (= (= y$a y$b) y$118))
(assert (= y$132 (and y$42 y$s$2_op y$15 y$118)))
(assert (= y$132 (not y$133)))
(assert (= y$143 (and y$prop y$23 y$45 y$44 y$prop$next y$34 y$88 y$87 y$116 y$133)))
(assert y$143)
(assert (= y$68 (not (= y$a$next y$b$next))))
(assert (= y$41 (= y$n1s251 y$a$next)))
(assert (= y$85 (= y$n0s251 y$b$next)))
(assert (= y$119 (and y$41 y$85)))
(assert (= y$119 (not y$120)))
(assert (= y$121 (and y$68 y$120)))
(assert y$121)
(assert (= y$s$2_op (Le_1_251_251 y$a y$n100s251)))
(assert (= y$s$1_op (Add_251_251_251 y$b y$a)))
(assert (= y$a$next_rhs_op (ite y$s$2_op y$s$1_op y$a)))
(assert (= y$15 (= y$a$next y$a$next_rhs_op)))
(assert y$15)
(assert (= y$17 (= y$a y$b$next)))
(assert y$17)
(check-sat)
(exit)
